; redis-py :: corpus-study/repo_src/redis-py/redis/asyncio/cluster.py :: LOCK 'RedisCluster._lock' :: structured encoding (verdict: unsat)
; Generated by snf-pipeline (encoder.py) -- run with any
; SMT-LIB2-compliant solver, e.g. `z3 redis-py__corpus-study_repo_src_redis-py_redis_asyncio_cluster.py__RedisCluster._lock__structured.smt2`
; benchmark generated from python API
(set-info :status unknown)
(declare-fun lorder_0 () Int)
(declare-fun lorder_1 () Int)
(assert
 (>= lorder_0 1))
(assert
 (<= lorder_0 2))
(assert
 (>= lorder_1 1))
(assert
 (<= lorder_1 2))
(assert
 (and (distinct lorder_0 lorder_1) true))
(assert
 (let (($x31 (= lorder_0 lorder_1)))
(or $x31)))
(check-sat)
